p cnf 214 211
-4 0
-12 0
-22 0
-23 0
-39 0
-40 0
-53 0
-54 0
-55 0
-84 0
-85 0
-86 0
-87 0
-96 0
-95 -97 0
-98 0
-99 0
-111 0
-112 0
-117 0
-150 0
-151 0
-152 0
-153 0
-184 0
-185 0
-187 0
-188 0
-189 0
-190 0
-220 0
-221 0
-224 0
-226 0
-301 0
-302 0
-323 0
-324 0
-340 0
-341 0
-344 0
-345 0
-359 0
-360 0
-369 0
-387 0
-388 0
-407 0
-408 0
-417 0
-547 0
-548 0
-585 0
-586 0
-610 0
-611 0
-630 0
-635 0
-636 0
-669 0
-670 0
-711 0
-712 0
-736 0
-737 0
-751 0
-752 0
-757 0
-758 0
-767 0
-768 0
-770 0
-771 0
-783 0
-784 0
-793 0
-794 0
-806 0
-807 0
-883 0
-884 0
-916 0
-917 0
-935 0
-936 0
-957 0
-958 0
-984 0
-985 0
-1026 0
-1027 0
-1028 0
-1052 0
-1053 0
-1130 0
-1131 0
-1159 0
-1160 0
-1175 0
-1176 0
-1180 0
-1194 0
-1195 0
-1224 0
-1225 0
-1243 0
-1244 0
-1290 0
-1291 0
-1338 0
-1339 0
-1358 0
-1359 0
-1403 0
-1404 0
-1413 0
-1414 -1415 0
-1416 0
-1417 0
-1420 0
-1421 0
-1431 0
-1432 0
-1438 0
-1439 0
-1460 0
-1461 0
-1479 0
-1480 0
-1482 0
-1483 0
-1491 0
-1492 0
-1507 0
-1508 -1509 0
-1525 0
-1541 0
-1542 0
-1554 0
-1555 0
-1578 0
-1579 0
-1605 0
-1606 0
-1621 0
-1636 0
-1637 0
-1644 0
-1645 0
-1670 0
-1671 0
-1672 0
-1673 0
-1680 0
-1681 0
-1712 0
-1713 0
-1720 0
-1721 0
-1728 0
-1729 0
-1736 0
-1737 0
-1775 0
-1776 0
-1782 0
-1785 0
-1786 0
-1802 0
-1803 0
-1831 0
-1832 0
-1861 0
-1862 0
-1874 0
-1875 0
-1877 0
-1878 0
-1882 0
-1883 0
-1890 0
-1891 0
-1920 0
-1921 0
-1936 0
-1937 0
-1957 0
-1958 0
-1964 0
-1965 0
-2055 0
-2056 0
-2074 0
-2075 0
-2097 0
-2098 0
-2109 0
-2110 0
-2111 0
-2112 0
-2120 0
-2168 0
-2169 0
-2174 0
-2175 0
-2181 0
-2192 0
-2193 0
-2202 0
-2203 0
-2204 0
